Normalized Data/p03_1030_tsplib0_normalized_split0.vrp
NAME:p03_1030_tsplib0_NORMALIZED_split
BEST_KNOWN: 0
COMMENT: 0
DIMENSION: 357
CAPACITY: 100
EDGE_WEIGHT_FORMAT: FUNCTION
EDGE_WEIGHT_TYPE: EXACT_2D
NODE_COORD_SECTION
1 0.00000 0.00000
2 6 14
3 6 14
4 6 14
5 6 14
6 0 -18
7 0 -18
8 0 -18
9 0 -18
10 20 10
11 20 10
12 20 10
13 20 10
14 20 10
15 20 -15
16 20 -15
17 -20 -5
18 -20 -5
19 -20 -5
20 -20 -5
21 -20 -5
22 -10 -5
23 -10 -5
24 -10 -5
25 -10 -5
26 -15 15
27 -15 15
28 -15 15
29 -15 15
30 -15 15
31 -15 15
32 -25 8
33 -25 8
34 -25 8
35 20 25
36 20 25
37 20 25
38 20 25
39 20 25
40 -5 25
41 -15 30
42 -15 30
43 -15 30
44 15 0
45 15 0
46 15 0
47 15 0
48 -5 -10
49 -5 -10
50 -5 -10
51 -5 -10
52 -5 -10
53 -5 -10
54 -20 -25
55 -5 -30
56 -5 -30
57 -5 -30
58 -5 -30
59 -5 -30
60 -25 -15
61 -25 -15
62 -30 -5
63 -30 -5
64 -15 5
65 -20 25
66 -20 25
67 -20 25
68 -20 25
69 10 30
70 10 -15
71 10 -15
72 10 -15
73 10 -25
74 10 -25
75 10 -25
76 20 -30
77 20 -30
78 20 -30
79 20 -30
80 30 0
81 30 0
82 30 -15
83 30 -15
84 10 -5
85 10 -5
86 10 -5
87 10 -5
88 10 -5
89 0 5
90 6 2
91 6 2
92 29 7
93 29 7
94 29 7
95 29 7
96 5 25
97 5 25
98 5 25
99 -4 17
100 -4 17
101 -4 17
102 -4 17
103 0 34
104 0 34
105 0 34
106 18 17
107 18 17
108 18 17
109 30 20
110 30 20
111 30 20
112 30 20
113 30 20
114 28 30
115 28 30
116 28 30
117 -33 25
118 -33 25
119 -33 25
120 -33 25
121 -33 25
122 -33 25
123 -15 -15
124 -15 -15
125 -30 -30
126 -30 -30
127 -30 -30
128 -30 -30
129 -30 -30
130 -30 -30
131 25 -23
132 25 -23
133 25 -23
134 25 -23
135 25 -23
136 25 -23
137 5 -10
138 5 -10
139 5 -10
140 7 -28
141 7 -28
142 7 -28
143 7 -28
144 -11 -23
145 -11 -23
146 -12 -32
147 -12 -32
148 -12 -32
149 -24 -21
150 -24 -21
151 -24 -21
152 -24 -21
153 -29 3
154 -29 3
155 -29 3
156 -29 3
157 -33 13
158 -33 13
159 -27 21
160 -27 21
161 -27 21
162 -27 21
163 -27 21
164 -27 21
165 -22 17
166 -22 17
167 -22 17
168 -22 17
169 -22 17
170 -29 33
171 -29 33
172 -29 33
173 12 12
174 12 12
175 12 12
176 14 23
177 14 23
178 14 23
179 14 23
180 -8 8
181 -8 8
182 -8 8
183 -8 8
184 2 -4
185 2 -4
186 22 -6
187 22 -6
188 22 -6
189 22 -6
190 22 -6
191 28 -12
192 28 -12
193 28 -12
194 28 -12
195 28 -12
196 18 -23
197 18 -23
198 18 -23
199 18 -23
200 18 -23
201 -3 -23
202 -3 -23
203 -3 -23
204 1 -9
205 1 -9
206 1 -9
207 1 -9
208 1 -9
209 -14 -11
210 -14 -11
211 -14 -11
212 -14 -11
213 -14 -11
214 -18 -1
215 -18 -1
216 -18 -1
217 -23 -11
218 -23 -11
219 -23 -11
220 -23 -11
221 -11 23
222 -11 23
223 -8 34
224 -8 34
225 -8 34
226 -20 42
227 -20 42
228 27 42
229 27 42
230 27 42
231 27 42
232 14 38
233 14 38
234 14 38
235 14 38
236 14 38
237 14 38
238 32 -30
239 32 -30
240 32 -30
241 32 -30
242 21 4
243 21 4
244 2 12
245 2 12
246 2 12
247 2 12
248 2 12
249 2 12
250 2 21
251 2 21
252 2 21
253 2 21
254 22 33
255 22 33
256 22 33
257 22 33
258 22 33
259 12 -19
260 12 -19
261 12 -19
262 12 -19
263 9 -18
264 9 -18
265 9 -18
266 11 -22
267 11 -22
268 11 -22
269 11 -22
270 11 -22
271 11 -22
272 14 -24
273 14 -24
274 14 7
275 14 7
276 14 7
277 18 8
278 18 8
279 26 17
280 26 17
281 26 17
282 26 17
283 26 17
284 22 13
285 22 13
286 21 2
287 21 2
288 21 2
289 20 19
290 20 19
291 20 19
292 20 19
293 -20 12
294 -20 12
295 -21 2
296 -21 2
297 -21 2
298 -21 2
299 -24 -4
300 -24 -4
301 -24 -4
302 -19 -13
303 -19 -13
304 -19 -13
305 -19 -13
306 -19 -13
307 -19 -13
308 -31 -17
309 -31 -17
310 -7 -17
311 -7 -17
312 -7 -17
313 -7 -17
314 -7 -17
315 -7 -17
316 -9 17
317 -9 17
318 -9 17
319 -9 0
320 -9 0
321 -9 0
322 -9 0
323 -4 32
324 -4 32
325 -4 32
326 -20 -16
327 -20 -16
328 -20 -16
329 -13 -13
330 -13 -13
331 -17 -11
332 -17 -11
333 -17 -11
334 -17 -11
335 -9 -8
336 -9 -8
337 -9 -8
338 -9 -8
339 -9 -8
340 -10 -11
341 -10 -11
342 -10 -11
343 -10 -11
344 -13 -8
345 -13 -8
346 -10 -14
347 -10 -14
348 -16 -14
349 -16 -14
350 -16 -14
351 -16 -14
352 -16 -14
353 -15 -9
354 -15 -9
355 -17 -17
356 -17 -17
357 -17 -17
DEMAND_SECTION
1 0
2 20
3 5
4 1
5 1
6 10
7 5
8 1
9 1
10 10
11 1
12 1
13 1
14 1
15 20
16 1
17 20
18 5
19 1
20 1
21 1
22 20
23 5
24 1
25 1
26 10
27 5
28 1
29 1
30 1
31 1
32 10
33 1
34 1
35 10
36 1
37 1
38 1
39 1
40 10
41 20
42 5
43 1
44 10
45 5
46 1
47 1
48 10
49 5
50 1
51 1
52 1
53 1
54 20
55 20
56 1
57 1
58 1
59 1
60 10
61 5
62 10
63 1
64 20
65 20
66 5
67 1
68 1
69 20
70 10
71 1
72 1
73 20
74 1
75 1
76 20
77 1
78 1
79 1
80 20
81 1
82 20
83 5
84 20
85 1
86 1
87 1
88 1
89 10
90 20
91 5
92 10
93 1
94 1
95 1
96 10
97 1
98 1
99 20
100 5
101 1
102 1
103 20
104 5
105 1
106 20
107 5
108 1
109 10
110 1
111 1
112 1
113 1
114 20
115 5
116 1
117 10
118 5
119 1
120 1
121 1
122 1
123 20
124 5
125 10
126 5
127 1
128 1
129 1
130 1
131 10
132 5
133 1
134 1
135 1
136 1
137 20
138 5
139 1
140 10
141 1
142 1
143 1
144 10
145 1
146 20
147 1
148 1
149 20
150 1
151 1
152 1
153 20
154 5
155 1
156 1
157 10
158 5
159 10
160 5
161 1
162 1
163 1
164 1
165 10
166 5
167 1
168 1
169 1
170 20
171 5
172 1
173 20
174 1
175 1
176 20
177 1
178 1
179 1
180 20
181 1
182 1
183 1
184 10
185 1
186 20
187 5
188 1
189 1
190 1
191 20
192 1
193 1
194 1
195 1
196 20
197 1
198 1
199 1
200 1
201 10
202 5
203 1
204 20
205 1
206 1
207 1
208 1
209 10
210 5
211 1
212 1
213 1
214 10
215 5
216 1
217 20
218 5
219 1
220 1
221 10
222 5
223 10
224 5
225 1
226 10
227 5
228 10
229 5
230 1
231 1
232 10
233 5
234 1
235 1
236 1
237 1
238 20
239 5
240 1
241 1
242 10
243 1
244 20
245 5
246 1
247 1
248 1
249 1
250 20
251 5
252 1
253 1
254 20
255 5
256 1
257 1
258 1
259 20
260 5
261 1
262 1
263 20
264 5
265 1
266 20
267 5
268 1
269 1
270 1
271 1
272 10
273 1
274 10
275 5
276 1
277 20
278 1
279 20
280 1
281 1
282 1
283 1
284 20
285 1
286 20
287 5
288 1
289 20
290 1
291 1
292 1
293 10
294 5
295 20
296 1
297 1
298 1
299 20
300 1
301 1
302 20
303 5
304 1
305 1
306 1
307 1
308 20
309 5
310 20
311 5
312 1
313 1
314 1
315 1
316 20
317 5
318 1
319 20
320 5
321 1
322 1
323 10
324 1
325 1
326 20
327 5
328 1
329 20
330 1
331 10
332 1
333 1
334 1
335 20
336 5
337 1
338 1
339 1
340 20
341 1
342 1
343 1
344 20
345 5
346 20
347 5
348 10
349 5
350 1
351 1
352 1
353 20
354 5
355 10
356 1
357 1
DEPOT_SECTION
1
-1
EOF