Normalized Data/p03_1030_tsplib0_normalized_split0.sol
356 -8 6 7 5 200 201 202 54 55 58 57 56 146 147 145 143 144 312 314 313 311 -11 13 283 284 278 280 281 279 282 110 108 111 109 112 113 114 115 36 37 34 35 -15 14 82 81 190 193 191 192 194 185 187 189 186 188 -18 19 300 298 299 61 62 155 152 153 154 31 33 32 295 296 297 294 -23 21 22 24 17 16 20 215 214 213 320 318 319 321 -39 102 104 103 323 324 322 223 224 222 40 42 220 221 -41 225 226 171 169 170 119 120 116 118 117 121 157 156 63 -44 43 46 45 285 287 286 79 80 92 91 93 94 242 241 273 -48 49 51 47 52 50 346 345 309 310 203 205 206 204 207 -53 129 126 125 127 124 128 151 149 150 148 326 325 327 302 304 305 306 303 337 336 -84 86 85 87 83 70 69 71 264 263 262 136 137 138 184 183 -88 3 2 4 1 173 174 172 12 9 10 276 277 274 275 -89 90 -106 105 107 290 291 288 289 176 175 249 251 252 250 245 246 248 -131 134 132 130 135 133 240 238 239 237 78 76 75 77 198 199 196 195 197 260 261 259 -139 140 142 141 73 72 74 272 271 270 265 266 269 267 268 258 -177 178 38 257 253 256 254 255 230 228 227 229 235 231 236 232 234 233 68 96 95 97 247 -181 180 179 317 315 316 98 99 101 100 243 244 -182 26 25 28 29 30 27 66 64 67 65 159 161 163 160 162 158 164 165 166 167 168 293 292 -219 218 216 217 308 307 60 59 301 330 332 331 333 -338 334 335 210 212 208 211 209 352 353 343 344 -340 339 342 341 329 328 123 122 354 355 356 350 351 347 348 349 0 





OBJ=
1471.756
BEST_KNOWN=
0.000